13978.0
12,20,29,46,64,74,76,85,89,96,106,113,147,157,163,164,169,203,204,211,233,242,265,268,271,273,292,294,302,323,343,375,384,391,422,423,425,432,475,479,483,490,491,498,505,538,546,562,574,583,584,589,597,606,637,655,659,662,663,665,668,675,694,698,705,721,724,757,758,764,767,833,838,842,849,851,852,855,883,892,895,903,909,921,926,946,952,969,988,997